projeto3/1.lp
min: tf;

arco_01: t1 >= t0 + 4;
arco_13: t3 >= t1 + y1 + 6;
arco_i0: t0 >= ti + 0;
arco_04: t4 >= t0 + 4;
arco_43: t3 >= t4 + 9;
arco_53: t3 >= t5 + 4;
arco_3f: tf >= t3 + 2;
arco_45: t5 >= t4 + 9;
arco_5f: tf >= t5 + 4;
arco_i6: t6 >= ti + 0;
arco_74: t4 >= t7 + y7 + 6;
arco_9f: tf >= t9 + 2;
arco_67: t7 >= t6 + 5;
arco_75: t5 >= t7 + y7 + 6;
arco_79: t9 >= t7 + y7 + 6;
arco_610: t1 >= t6 + 5;
arco_105: t5 >= t10 + y10 + 8;
arco_109: t9 >= t10 + y10 + 8;
arco_119: t9 >= t11 + 7;
arco_1011: t11 >= t10 + y10 + 8;

t1 >= t7 + 6 - 1000 * y7 - 1000 * y1 - 1000 + 1000 * r1_7;
t1 >= t10 + 8 - 1000 * y10 - 1000 * y1 - 1000 + 1000 * r1_10;
t7 >= t1 + 6 - 1000 * y1 - 1000 * y7 - 1000 * r1_7;
t7 >= t10 + 8 - 1000 * y10 - 1000 * y7 - 1000 + 1000 * r7_10;
t10 >= t1 + 6 - 1000 * y1 - 1000 * y10 - 1000 * r1_10;
t10 >= t7 + 6 - 1000 * y7 - 1000 * y10 - 1000 * r7_10;

y1 + y7 + y10 <= 1;

int ti, t0, t1, t2, t3, t4, t5, t6, t7, t9, t10, t11, tf;
bin y1, y7, y10, r1_7, r1_10, r7_10;
