projeto3/1.out

Value of objective function: 26.00000000

Actual values of the variables:
tf                             26
t6                              0
ti                              0
t10                             5
t7                              5
t0                              0
t1                             11
t4                             11
t3                             24
y1                              0
t5                             20
y7                              0
t9                             21
y10                             1
t11                            14
r1_7                            1
r1_10                           0
r7_10                           0
